(set-info :smt-lib-version 2.6)
(set-logic QF_BV)
(set-info :source |
 Patrice Godefroid, SAGE (systematic dynamic test generation)
 For more information: http://research.microsoft.com/en-us/um/people/pg/public_psfiles/ndss2008.pdf
|)
(set-info :category "industrial")
(set-info :status sat)
(declare-fun T4_10720 () (_ BitVec 32))
(declare-fun T4_4593 () (_ BitVec 32))
(declare-fun T1_10720 () (_ BitVec 8))
(declare-fun T1_10721 () (_ BitVec 8))
(declare-fun T1_10722 () (_ BitVec 8))
(declare-fun T1_10723 () (_ BitVec 8))
(declare-fun T1_4593 () (_ BitVec 8))
(declare-fun T1_4594 () (_ BitVec 8))
(declare-fun T1_4595 () (_ BitVec 8))
(declare-fun T1_4596 () (_ BitVec 8))
(assert (and true (= T4_4593 (bvor (bvshl (bvor (bvshl (bvor (bvshl ((_ zero_extend 24) T1_4596) (_ bv8 32)) ((_ zero_extend 24) T1_4595)) (_ bv8 32)) ((_ zero_extend 24) T1_4594)) (_ bv8 32)) ((_ zero_extend 24) T1_4593))) (= T4_10720 (bvor (bvshl (bvor (bvshl (bvor (bvshl ((_ zero_extend 24) T1_10723) (_ bv8 32)) ((_ zero_extend 24) T1_10722)) (_ bv8 32)) ((_ zero_extend 24) T1_10721)) (_ bv8 32)) ((_ zero_extend 24) T1_10720))) (not (= (_ bv1126705710 32) T4_10720)) (= T4_4593 T4_10720)))
(check-sat)
(exit)
